c File: instances/16_0.55_3.col
c
c Description: Random graph of size 16 vertices and P(0.5499999999999999) of edges between any two vertices.
p col 16 120
e 1 3
e 1 4
e 1 6
e 1 9
e 1 10
e 1 12
e 1 13
e 1 14
e 2 4
e 2 6
e 2 8
e 2 10
e 2 11
e 2 12
e 2 13
e 2 14
e 3 4
e 3 5
e 3 7
e 3 8
e 3 9
e 3 10
e 3 13
e 3 14
e 3 15
e 4 5
e 4 9
e 4 10
e 4 12
e 4 13
e 4 14
e 5 6
e 5 7
e 5 11
e 5 12
e 5 13
e 5 16
e 6 8
e 6 13
e 6 14
e 7 8
e 7 9
e 7 10
e 7 11
e 7 12
e 7 14
e 7 15
e 8 9
e 8 10
e 8 13
e 8 14
e 8 16
e 9 11
e 9 13
e 9 14
e 9 16
e 10 12
e 10 13
e 10 15
e 10 16
e 11 13
e 11 14
e 11 15
e 12 13
e 12 16
e 13 15
e 13 16